set VERT := 1 2 3 4 5 6 7 8 9 10 11 12 13 14 15 16 17 18 19 20 21 22 23 24 25 26 27 28 29 30 31 32 33 34 35 36 37 38 39 40 41 42 43 44 45 46 47 48 49 50; 

set ARCS := 1 2 3 4 5 6 7 8 9 10 11 12 13 14 15 16 17 18 19 20 21 22 23 24 25 26 27 28 29 30 31 32 33 34 35 36 37 38 39 40 41 42 43 44 45 46 47 48 49 50 51 52 53 54 55 56 57 58 59 60 61 62 63 64 65 66 67 68 69 70 71 72 73 74 75 76 77 78 79 80 81 82 83 84 85 86 87 88; 

set STREAMS := 1 2 3 4 5 6 7 8 9 10 11 12 13 14 15 16 17 18 19 20 21 22 23 24 25 26 27 28 29 30 31 32 33 34 35 36 37 38 39 40 41 42 43 44 45 46 47 48 49 50 51 52 53 54 55 56 57 58 59 60 61 62 63 64 65 66 67 68 69 70 71 72 73 74 75 76 77 78 79 80 81 82 83 84 85 86 87 88 89 90 91 92 93 94 95 96 97 98 99 100 101 102 103 104 105 106 107 108 109 110 111 112 113 114 115 116 117 118 119 120 121 122 123 124 125 126 127 128 129 130 131 132 133 134 135 136 137 138 139 140 141 142 143 144 145 146 147 148 149 150 151 152 153 154 155 156 157 158 159 160 161 162 163 164 165 166 167 168 169 170 171 172 173 174 175 176 177 178 179 180 181 182 183 184 185 186 187 188 189 190 191 192 193 194 195 196 197 198 199 200 201 202 203 204 205 206 207 208 209 210 211 212 213 214 215 216 217 218 219 220 221 222 223 224 225 226 227 228 229 230 231 232 233 234 235 236 237 238 239 240 241 242 243 244 245 246 247 248 249 250 251 252 253 254 255 256 257 258 259 260 261 262 263 264 265 266 267 268 269 270 271 272 273 274 275 276 277 278 279 280 281 282 283 284 285 286 287 288 289 290 291 292 293 294 295 296 297 298 299 300 301 302 303 304 305 306 307 308 309 310 311 312 313 314 315 316 317 318 319 320 321 322 323 324 325 326 327 328 329 330 331 332 333 334 335 336 337 338 339 340 341 342 343 344 345 346 347 348 349 350 351 352 353 354 355 356 357 358 359 360 361 362 363 364 365 366 367 368 369 370 371 372 373 374 375 376 377 378 379 380 381 382 383 384 385 386 387 388 389 390 391 392 393 394 395 396 397 398 399 400 401 402 403 404 405 406 407 408 409 410 411 412 413 414 415 416 417 418 419 420 421 422 423 424 425 426 427 428 429 430 431 432 433 434 435 436 437 438 439 440 441 442 443 444 445 446 447 448 449 450 451 452 453 454 455 456 457 458 459 460 461 462 463 464 465 466 467 468 469 470 471 472 473 474 475 476 477 478 479 480 481 482 483 484 485 486 487 488 489 490 491 492 493 494 495 496 497 498 499 500 501 502 503 504 505 506 507 508 509 510 511 512 513 514 515 516 517 518 519 520 521 522 523 524 525 526 527 528 529 530 531 532 533 534 535 536 537 538 539 540 541 542 543 544 545 546 547 548 549 550 551 552 553 554 555 556 557 558 559 560 561 562 563 564 565 566 567 568 569 570 571 572 573 574 575 576 577 578 579 580 581 582 583 584 585 586 587 588 589 590 591 592 593 594 595 596 597 598 599 600 601 602 603 604 605 606 607 608 609 610 611 612 613 614 615 616 617 618 619 620 621 622 623 624 625 626 627 628 629 630 631 632 633 634 635 636 637 638 639 640 641 642 643 644 645 646 647 648 649 650 651 652 653 654 655 656 657 658 659 660 661 662; 

set VEHICLES := 1 2 3 4; 

set DIM := 1 2; 

set LOG_FUN := NONE WER PER; 

set DELAYS := DELAYSB DELAYS DELAY DELA DEL; 

set ARCSE[1] := 10 11;
set ARCSE[2] := 84;
set ARCSE[3] :=;
set ARCSE[4] := 22 23 24 25 26;
set ARCSE[5] := 55;
set ARCSE[6] := 56;
set ARCSE[7] := 45 46 47;
set ARCSE[8] :=;
set ARCSE[9] := 36;
set ARCSE[10] := 62 63;
set ARCSE[11] := 7 8 9;
set ARCSE[12] := 31 32;
set ARCSE[13] := 4;
set ARCSE[14] := 33 34 35;
set ARCSE[15] := 1 2 3;
set ARCSE[16] := 51;
set ARCSE[17] := 59 60 61;
set ARCSE[18] :=;
set ARCSE[19] := 69;
set ARCSE[20] := 67;
set ARCSE[21] :=;
set ARCSE[22] := 42 43 44;
set ARCSE[23] := 52 53 54;
set ARCSE[24] := 65 66;
set ARCSE[25] := 75;
set ARCSE[26] := 57 58;
set ARCSE[27] :=;
set ARCSE[28] := 48;
set ARCSE[29] := 14 15 16 17;
set ARCSE[30] := 5 6;
set ARCSE[31] := 77 78;
set ARCSE[32] := 27 28 29 30;
set ARCSE[33] := 41;
set ARCSE[34] := 64;
set ARCSE[35] := 79 80 81 82 83;
set ARCSE[36] := 12 13;
set ARCSE[37] :=;
set ARCSE[38] := 86 87 88;
set ARCSE[39] := 49 50;
set ARCSE[40] :=;
set ARCSE[41] := 85;
set ARCSE[42] :=;
set ARCSE[43] := 70;
set ARCSE[44] := 37 38 39 40;
set ARCSE[45] := 18 19;
set ARCSE[46] := 71 72 73 74;
set ARCSE[47] := 68;
set ARCSE[48] := 76;
set ARCSE[49] := 20 21;
set ARCSE[50] :=;


set ARCSL[1] := 5;
set ARCSL[2] := 76 79;
set ARCSL[3] := 30 36 86;
set ARCSL[4] :=;
set ARCSL[5] := 12 18 52;
set ARCSL[6] := 41 44 53 55;
set ARCSL[7] :=;
set ARCSL[8] := 46 51;
set ARCSL[9] := 32 33;
set ARCSL[10] := 59;
set ARCSL[11] := 2;
set ARCSL[12] := 23 27;
set ARCSL[13] := 1;
set ARCSL[14] := 28 31;
set ARCSL[15] :=;
set ARCSL[16] := 48;
set ARCSL[17] := 15;
set ARCSL[18] := 75 77;
set ARCSL[19] := 58 61 67;
set ARCSL[20] := 19 57 60;
set ARCSL[21] := 26 38;
set ARCSL[22] := 39;
set ARCSL[23] := 43 47;
set ARCSL[24] := 16 63;
set ARCSL[25] := 64 66 70 71;
set ARCSL[26] := 9 34 56;
set ARCSL[27] := 78 80;
set ARCSL[28] := 40 42;
set ARCSL[29] := 6;
set ARCSL[30] := 4;
set ARCSL[31] := 73;
set ARCSL[32] := 22;
set ARCSL[33] := 25 29 37;
set ARCSL[34] := 62;
set ARCSL[35] :=;
set ARCSL[36] := 7;
set ARCSL[37] := 21 49;
set ARCSL[38] := 82;
set ARCSL[39] := 20 45;
set ARCSL[40] := 13 50 54;
set ARCSL[41] := 81;
set ARCSL[42] := 83 85 88;
set ARCSL[43] := 65 68;
set ARCSL[44] := 24;
set ARCSL[45] := 8 14;
set ARCSL[46] :=;
set ARCSL[47] := 11 17;
set ARCSL[48] := 72;
set ARCSL[49] := 3 10;
set ARCSL[50] := 35 69 74 84 87;


param source :=
	1	15
	2	15
	3	15
	4	15
	5	15
	6	15
	7	15
	8	15
	9	15
	10	15
	11	15
	12	15
	13	15
	14	15
	15	15
	16	15
	17	15
	18	15
	19	15
	20	15
	21	15
	22	15
	23	15
	24	15
	25	15
	26	15
	27	15
	28	15
	29	15
	30	15
	31	15
	32	15
	33	13
	34	13
	35	13
	36	13
	37	13
	38	13
	39	13
	40	13
	41	13
	42	13
	43	13
	44	13
	45	13
	46	13
	47	13
	48	13
	49	13
	50	13
	51	13
	52	13
	53	13
	54	13
	55	13
	56	13
	57	13
	58	13
	59	13
	60	13
	61	13
	62	13
	63	13
	64	13
	65	13
	66	13
	67	13
	68	13
	69	13
	70	13
	71	13
	72	13
	73	13
	74	13
	75	30
	76	30
	77	30
	78	30
	79	30
	80	30
	81	30
	82	30
	83	30
	84	30
	85	30
	86	30
	87	30
	88	30
	89	30
	90	30
	91	30
	92	30
	93	30
	94	30
	95	30
	96	30
	97	30
	98	30
	99	30
	100	30
	101	30
	102	30
	103	30
	104	30
	105	30
	106	30
	107	30
	108	30
	109	30
	110	30
	111	30
	112	30
	113	30
	114	30
	115	30
	116	30
	117	30
	118	30
	119	11
	120	11
	121	11
	122	11
	123	11
	124	11
	125	11
	126	11
	127	11
	128	11
	129	11
	130	11
	131	11
	132	11
	133	11
	134	11
	135	11
	136	11
	137	11
	138	11
	139	11
	140	11
	141	11
	142	11
	143	11
	144	11
	145	11
	146	11
	147	11
	148	11
	149	11
	150	11
	151	11
	152	11
	153	11
	154	11
	155	11
	156	11
	157	11
	158	1
	159	1
	160	1
	161	1
	162	1
	163	1
	164	1
	165	1
	166	1
	167	1
	168	1
	169	1
	170	1
	171	1
	172	1
	173	1
	174	1
	175	1
	176	36
	177	36
	178	36
	179	36
	180	36
	181	36
	182	36
	183	36
	184	36
	185	36
	186	36
	187	36
	188	36
	189	36
	190	36
	191	36
	192	29
	193	29
	194	29
	195	29
	196	29
	197	29
	198	29
	199	29
	200	29
	201	29
	202	29
	203	29
	204	29
	205	29
	206	29
	207	29
	208	29
	209	29
	210	29
	211	45
	212	45
	213	45
	214	45
	215	45
	216	45
	217	45
	218	45
	219	45
	220	45
	221	45
	222	49
	223	49
	224	49
	225	49
	226	49
	227	49
	228	49
	229	49
	230	49
	231	49
	232	4
	233	4
	234	4
	235	4
	236	4
	237	4
	238	4
	239	4
	240	4
	241	4
	242	4
	243	4
	244	4
	245	4
	246	4
	247	4
	248	4
	249	4
	250	4
	251	4
	252	4
	253	4
	254	4
	255	4
	256	4
	257	4
	258	4
	259	4
	260	4
	261	4
	262	4
	263	4
	264	4
	265	4
	266	4
	267	4
	268	32
	269	32
	270	32
	271	32
	272	32
	273	32
	274	32
	275	32
	276	32
	277	32
	278	32
	279	32
	280	32
	281	32
	282	32
	283	32
	284	32
	285	32
	286	32
	287	32
	288	12
	289	12
	290	12
	291	12
	292	12
	293	12
	294	12
	295	12
	296	12
	297	12
	298	12
	299	12
	300	12
	301	12
	302	12
	303	12
	304	12
	305	12
	306	12
	307	12
	308	12
	309	12
	310	12
	311	12
	312	12
	313	12
	314	12
	315	12
	316	14
	317	14
	318	14
	319	14
	320	14
	321	14
	322	14
	323	14
	324	14
	325	14
	326	14
	327	14
	328	14
	329	14
	330	14
	331	14
	332	14
	333	14
	334	14
	335	14
	336	14
	337	14
	338	9
	339	9
	340	9
	341	9
	342	9
	343	9
	344	9
	345	9
	346	9
	347	9
	348	9
	349	9
	350	9
	351	9
	352	9
	353	9
	354	44
	355	44
	356	44
	357	44
	358	44
	359	44
	360	44
	361	44
	362	44
	363	44
	364	44
	365	44
	366	44
	367	44
	368	44
	369	33
	370	33
	371	33
	372	33
	373	33
	374	33
	375	33
	376	33
	377	33
	378	33
	379	33
	380	33
	381	33
	382	33
	383	33
	384	33
	385	21
	386	21
	387	21
	388	21
	389	21
	390	21
	391	21
	392	22
	393	22
	394	22
	395	22
	396	22
	397	22
	398	22
	399	22
	400	22
	401	22
	402	22
	403	22
	404	22
	405	22
	406	22
	407	22
	408	22
	409	22
	410	22
	411	22
	412	22
	413	22
	414	22
	415	22
	416	22
	417	22
	418	7
	419	7
	420	7
	421	7
	422	7
	423	7
	424	7
	425	7
	426	7
	427	7
	428	7
	429	7
	430	7
	431	7
	432	7
	433	7
	434	7
	435	7
	436	7
	437	7
	438	7
	439	28
	440	28
	441	28
	442	28
	443	28
	444	28
	445	28
	446	28
	447	28
	448	28
	449	28
	450	28
	451	28
	452	28
	453	28
	454	28
	455	28
	456	39
	457	39
	458	39
	459	39
	460	39
	461	39
	462	39
	463	39
	464	16
	465	16
	466	16
	467	16
	468	8
	469	8
	470	8
	471	37
	472	37
	473	37
	474	37
	475	37
	476	37
	477	37
	478	37
	479	23
	480	23
	481	23
	482	23
	483	23
	484	23
	485	23
	486	23
	487	23
	488	23
	489	23
	490	23
	491	23
	492	23
	493	23
	494	23
	495	23
	496	23
	497	23
	498	23
	499	5
	500	5
	501	5
	502	5
	503	5
	504	5
	505	5
	506	5
	507	5
	508	5
	509	5
	510	5
	511	5
	512	5
	513	5
	514	5
	515	5
	516	6
	517	6
	518	6
	519	6
	520	6
	521	40
	522	40
	523	40
	524	26
	525	26
	526	26
	527	26
	528	26
	529	26
	530	26
	531	26
	532	26
	533	17
	534	17
	535	17
	536	17
	537	17
	538	17
	539	17
	540	17
	541	17
	542	17
	543	17
	544	17
	545	17
	546	17
	547	17
	548	17
	549	17
	550	17
	551	17
	552	17
	553	10
	554	10
	555	10
	556	10
	557	10
	558	10
	559	10
	560	10
	561	10
	562	10
	563	10
	564	10
	565	10
	566	10
	567	34
	568	34
	569	34
	570	34
	571	34
	572	34
	573	34
	574	34
	575	34
	576	34
	577	34
	578	34
	579	34
	580	34
	581	34
	582	34
	583	24
	584	24
	585	24
	586	24
	587	24
	588	20
	589	20
	590	20
	591	20
	592	20
	593	20
	594	47
	595	47
	596	47
	597	47
	598	19
	599	19
	600	19
	601	19
	602	19
	603	19
	604	43
	605	43
	606	43
	607	43
	608	43
	609	43
	610	46
	611	46
	612	46
	613	46
	614	46
	615	46
	616	46
	617	46
	618	46
	619	46
	620	46
	621	46
	622	25
	623	25
	624	25
	625	25
	626	25
	627	25
	628	25
	629	25
	630	25
	631	48
	632	48
	633	48
	634	48
	635	48
	636	48
	637	31
	638	31
	639	31
	640	31
	641	31
	642	18
	643	35
	644	35
	645	35
	646	35
	647	35
	648	35
	649	35
	650	2
	651	2
	652	2
	653	2
	654	41
	655	41
	656	41
	657	41
	658	38
	659	38
	660	38
	661	3
	662	3
;

param dest :=
	1	13
	2	30
	3	11
	4	1
	5	36
	6	29
	7	45
	8	49
	9	4
	10	32
	11	12
	12	14
	13	9
	14	44
	15	33
	16	22
	17	7
	18	28
	19	37
	20	23
	21	5
	22	40
	23	17
	24	10
	25	34
	26	43
	27	46
	28	25
	29	35
	30	2
	31	38
	32	50
	33	30
	34	11
	35	1
	36	36
	37	29
	38	45
	39	49
	40	4
	41	32
	42	12
	43	14
	44	44
	45	33
	46	21
	47	22
	48	7
	49	28
	50	39
	51	16
	52	8
	53	37
	54	23
	55	5
	56	6
	57	40
	58	26
	59	17
	60	10
	61	34
	62	20
	63	47
	64	19
	65	43
	66	46
	67	25
	68	48
	69	18
	70	35
	71	2
	72	38
	73	50
	74	42
	75	11
	76	1
	77	36
	78	29
	79	45
	80	49
	81	4
	82	32
	83	12
	84	14
	85	9
	86	44
	87	33
	88	22
	89	7
	90	28
	91	39
	92	8
	93	37
	94	23
	95	5
	96	6
	97	40
	98	26
	99	17
	100	10
	101	34
	102	24
	103	20
	104	47
	105	19
	106	43
	107	46
	108	25
	109	48
	110	31
	111	18
	112	35
	113	2
	114	27
	115	38
	116	3
	117	50
	118	42
	119	1
	120	36
	121	29
	122	45
	123	49
	124	4
	125	32
	126	12
	127	14
	128	9
	129	44
	130	33
	131	21
	132	22
	133	7
	134	28
	135	39
	136	16
	137	8
	138	37
	139	23
	140	5
	141	6
	142	40
	143	26
	144	17
	145	10
	146	34
	147	20
	148	19
	149	43
	150	46
	151	25
	152	48
	153	18
	154	35
	155	2
	156	38
	157	50
	158	36
	159	29
	160	49
	161	4
	162	12
	163	14
	164	22
	165	8
	166	37
	167	40
	168	17
	169	24
	170	47
	171	19
	172	43
	173	31
	174	18
	175	38
	176	45
	177	49
	178	4
	179	44
	180	22
	181	7
	182	8
	183	37
	184	23
	185	5
	186	40
	187	26
	188	17
	189	19
	190	31
	191	38
	192	45
	193	4
	194	12
	195	22
	196	8
	197	37
	198	5
	199	40
	200	26
	201	17
	202	10
	203	34
	204	24
	205	20
	206	47
	207	19
	208	43
	209	31
	210	50
	211	4
	212	22
	213	8
	214	40
	215	17
	216	34
	217	20
	218	19
	219	43
	220	31
	221	38
	222	4
	223	22
	224	8
	225	37
	226	5
	227	40
	228	17
	229	19
	230	43
	231	31
	232	32
	233	12
	234	14
	235	9
	236	44
	237	33
	238	21
	239	22
	240	7
	241	28
	242	39
	243	8
	244	23
	245	5
	246	6
	247	40
	248	26
	249	17
	250	10
	251	34
	252	24
	253	20
	254	47
	255	19
	256	43
	257	46
	258	25
	259	48
	260	31
	261	18
	262	35
	263	2
	264	41
	265	38
	266	3
	267	50
	268	12
	269	14
	270	9
	271	44
	272	33
	273	21
	274	22
	275	23
	276	5
	277	6
	278	17
	279	10
	280	34
	281	46
	282	25
	283	48
	284	35
	285	2
	286	38
	287	50
	288	14
	289	9
	290	44
	291	33
	292	21
	293	22
	294	7
	295	28
	296	37
	297	23
	298	5
	299	6
	300	26
	301	17
	302	10
	303	34
	304	47
	305	46
	306	25
	307	48
	308	31
	309	18
	310	35
	311	2
	312	38
	313	3
	314	50
	315	42
	316	9
	317	44
	318	33
	319	22
	320	7
	321	28
	322	23
	323	5
	324	6
	325	26
	326	17
	327	10
	328	34
	329	20
	330	19
	331	46
	332	25
	333	35
	334	2
	335	38
	336	3
	337	50
	338	44
	339	33
	340	22
	341	23
	342	5
	343	6
	344	17
	345	34
	346	20
	347	46
	348	25
	349	35
	350	2
	351	38
	352	3
	353	50
	354	33
	355	21
	356	22
	357	7
	358	28
	359	23
	360	5
	361	17
	362	34
	363	46
	364	25
	365	35
	366	2
	367	38
	368	50
	369	21
	370	22
	371	7
	372	28
	373	23
	374	5
	375	6
	376	17
	377	34
	378	46
	379	25
	380	35
	381	2
	382	38
	383	3
	384	50
	385	22
	386	7
	387	28
	388	23
	389	5
	390	17
	391	25
	392	7
	393	28
	394	39
	395	16
	396	8
	397	37
	398	23
	399	5
	400	6
	401	40
	402	26
	403	17
	404	10
	405	34
	406	20
	407	19
	408	43
	409	46
	410	25
	411	48
	412	18
	413	35
	414	2
	415	38
	416	50
	417	42
	418	28
	419	39
	420	16
	421	8
	422	37
	423	23
	424	5
	425	6
	426	40
	427	26
	428	17
	429	10
	430	34
	431	20
	432	47
	433	46
	434	25
	435	35
	436	2
	437	38
	438	50
	439	39
	440	16
	441	8
	442	23
	443	5
	444	6
	445	26
	446	17
	447	10
	448	34
	449	46
	450	25
	451	35
	452	2
	453	38
	454	3
	455	50
	456	8
	457	37
	458	23
	459	5
	460	40
	461	17
	462	46
	463	35
	464	8
	465	23
	466	5
	467	17
	468	23
	469	5
	470	17
	471	23
	472	5
	473	40
	474	17
	475	43
	476	31
	477	35
	478	41
	479	5
	480	6
	481	40
	482	26
	483	17
	484	10
	485	34
	486	20
	487	47
	488	19
	489	43
	490	46
	491	25
	492	48
	493	31
	494	18
	495	35
	496	2
	497	38
	498	50
	499	6
	500	40
	501	26
	502	17
	503	10
	504	34
	505	20
	506	19
	507	43
	508	46
	509	25
	510	48
	511	35
	512	2
	513	38
	514	3
	515	50
	516	26
	517	17
	518	46
	519	25
	520	35
	521	17
	522	46
	523	35
	524	17
	525	10
	526	34
	527	20
	528	19
	529	46
	530	25
	531	35
	532	38
	533	10
	534	34
	535	24
	536	20
	537	47
	538	19
	539	43
	540	46
	541	25
	542	48
	543	31
	544	18
	545	35
	546	2
	547	27
	548	41
	549	38
	550	3
	551	50
	552	42
	553	34
	554	24
	555	20
	556	47
	557	19
	558	43
	559	46
	560	25
	561	48
	562	18
	563	35
	564	2
	565	38
	566	50
	567	24
	568	20
	569	47
	570	19
	571	43
	572	46
	573	25
	574	48
	575	31
	576	18
	577	35
	578	2
	579	27
	580	38
	581	3
	582	50
	583	47
	584	43
	585	46
	586	25
	587	35
	588	19
	589	46
	590	25
	591	35
	592	38
	593	50
	594	43
	595	46
	596	25
	597	35
	598	46
	599	25
	600	35
	601	38
	602	3
	603	50
	604	46
	605	25
	606	18
	607	35
	608	2
	609	38
	610	25
	611	48
	612	31
	613	18
	614	35
	615	2
	616	27
	617	41
	618	38
	619	3
	620	50
	621	42
	622	48
	623	31
	624	18
	625	35
	626	2
	627	27
	628	38
	629	3
	630	50
	631	31
	632	35
	633	2
	634	27
	635	38
	636	50
	637	18
	638	35
	639	2
	640	27
	641	3
	642	35
	643	2
	644	27
	645	41
	646	38
	647	3
	648	50
	649	42
	650	27
	651	38
	652	3
	653	50
	654	38
	655	3
	656	50
	657	42
	658	3
	659	50
	660	42
	661	50
	662	42
;

param stream_size (tr):	1	2	3	4	5	6	7	8	9	10	11	12	13	14	15	16	17	18	19	20	21	22	23	24	25	26	27	28	29	30	31	32	33	34	35	36	37	38	39	40	41	42	43	44	45	46	47	48	49	50	51	52	53	54	55	56	57	58	59	60	61	62	63	64	65	66	67	68	69	70	71	72	73	74	75	76	77	78	79	80	81	82	83	84	85	86	87	88	89	90	91	92	93	94	95	96	97	98	99	100	101	102	103	104	105	106	107	108	109	110	111	112	113	114	115	116	117	118	119	120	121	122	123	124	125	126	127	128	129	130	131	132	133	134	135	136	137	138	139	140	141	142	143	144	145	146	147	148	149	150	151	152	153	154	155	156	157	158	159	160	161	162	163	164	165	166	167	168	169	170	171	172	173	174	175	176	177	178	179	180	181	182	183	184	185	186	187	188	189	190	191	192	193	194	195	196	197	198	199	200	201	202	203	204	205	206	207	208	209	210	211	212	213	214	215	216	217	218	219	220	221	222	223	224	225	226	227	228	229	230	231	232	233	234	235	236	237	238	239	240	241	242	243	244	245	246	247	248	249	250	251	252	253	254	255	256	257	258	259	260	261	262	263	264	265	266	267	268	269	270	271	272	273	274	275	276	277	278	279	280	281	282	283	284	285	286	287	288	289	290	291	292	293	294	295	296	297	298	299	300	301	302	303	304	305	306	307	308	309	310	311	312	313	314	315	316	317	318	319	320	321	322	323	324	325	326	327	328	329	330	331	332	333	334	335	336	337	338	339	340	341	342	343	344	345	346	347	348	349	350	351	352	353	354	355	356	357	358	359	360	361	362	363	364	365	366	367	368	369	370	371	372	373	374	375	376	377	378	379	380	381	382	383	384	385	386	387	388	389	390	391	392	393	394	395	396	397	398	399	400	401	402	403	404	405	406	407	408	409	410	411	412	413	414	415	416	417	418	419	420	421	422	423	424	425	426	427	428	429	430	431	432	433	434	435	436	437	438	439	440	441	442	443	444	445	446	447	448	449	450	451	452	453	454	455	456	457	458	459	460	461	462	463	464	465	466	467	468	469	470	471	472	473	474	475	476	477	478	479	480	481	482	483	484	485	486	487	488	489	490	491	492	493	494	495	496	497	498	499	500	501	502	503	504	505	506	507	508	509	510	511	512	513	514	515	516	517	518	519	520	521	522	523	524	525	526	527	528	529	530	531	532	533	534	535	536	537	538	539	540	541	542	543	544	545	546	547	548	549	550	551	552	553	554	555	556	557	558	559	560	561	562	563	564	565	566	567	568	569	570	571	572	573	574	575	576	577	578	579	580	581	582	583	584	585	586	587	588	589	590	591	592	593	594	595	596	597	598	599	600	601	602	603	604	605	606	607	608	609	610	611	612	613	614	615	616	617	618	619	620	621	622	623	624	625	626	627	628	629	630	631	632	633	634	635	636	637	638	639	640	641	642	643	644	645	646	647	648	649	650	651	652	653	654	655	656	657	658	659	660	661	662:=
		1	34	9	9	2	2	2	2	2	2	2	2	2	2	2	2	2	2	2	2	2	2	2	2	2	2	2	2	2	2	2	2	2	76	25	3	6	2	2	5	4	2	2	2	2	2	2	15	2	2	2	2	2	2	19	4	2	2	2	33	2	2	2	2	2	2	5	2	2	2	4	2	2	2	2	13	10	2	5	4	2	11	3	2	2	2	2	2	5	2	2	2	2	2	12	2	2	2	2	28	2	2	2	2	5	2	2	7	2	2	2	2	3	2	2	3	2	2	2	2	6	2	5	2	2	5	2	2	2	2	2	2	3	2	2	2	2	2	2	15	8	2	2	2	6	2	2	2	2	2	2	2	2	2	2	2	2	2	2	2	2	2	2	2	2	2	2	2	3	2	2	2	2	2	3	2	2	2	2	2	2	2	2	2	2	5	2	3	3	2	2	2	2	2	2	2	2	2	2	2	2	2	6	2	2	2	2	2	2	2	2	2	2	2	2	2	2	2	2	2	2	2	2	2	2	2	2	2	2	2	2	2	20	11	3	2	3	7	4	23	2	2	2	2	25	2	2	2	2	16	2	2	2	2	2	2	2	3	2	2	2	2	4	2	2	3	2	2	10	11	3	2	6	2	17	3	2	2	4	2	2	2	2	2	3	2	9	2	2	4	2	2	2	2	2	2	2	2	2	2	2	2	2	2	2	2	2	2	2	2	2	2	2	2	2	2	2	2	6	2	2	2	2	2	2	2	5	2	2	2	2	2	2	2	2	2	2	2	2	2	2	2	2	2	2	2	2	2	2	2	2	2	2	2	2	2	8	2	3	2	2	2	2	2	2	2	2	2	2	2	2	2	2	2	2	3	2	2	2	2	2	2	2	2	2	2	2	2	2	2	2	2	13	14	2	3	3	2	71	3	2	2	2	11	2	2	2	2	2	3	2	2	2	6	2	2	2	2	2	4	2	2	3	11	2	2	2	2	2	2	2	2	2	2	2	2	2	2	2	2	3	2	2	2	2	2	2	2	2	2	2	2	2	2	2	2	2	2	2	2	2	2	2	2	2	2	2	5	2	2	2	2	2	2	2	2	2	2	2	25	5	3	6	49	2	2	2	2	2	2	2	2	2	2	2	2	2	4	2	2	4	3	3	2	2	2	2	2	2	2	2	2	2	2	2	2	2	2	2	2	2	2	2	2	2	2	2	2	2	2	2	2	2	25	35	2	9	2	2	5	19	8	5	3	2	3	2	2	2	23	2	3	2	4	2	2	3	2	2	2	2	2	2	2	2	2	2	4	2	2	2	5	5	4	2	2	2	2	2	2	2	2	2	2	2	2	3	2	2	2	2	2	2	2	2	2	2	2	2	2	2	2	2	2	2	2	2	2	2	2	35	11	4	6	30	2	2	2	35	2	2	2	2	2	5	4	2	2	2	2	2	2	2	2	2	2	2	3	5	2	2	2	2	20	2	5	32	2	3	2	2	2	2	2	2	2	2	2	5	10	9	3	3
		2	34	9	9	2	2	2	2	2	2	2	2	2	2	2	2	2	2	2	2	2	2	2	2	2	2	2	2	2	2	2	2	2	76	25	3	6	2	2	5	4	2	2	2	2	2	2	15	2	2	2	2	2	2	19	4	2	2	2	33	2	2	2	2	2	2	5	2	2	2	4	2	2	2	2	13	10	2	5	4	2	11	3	2	2	2	2	2	5	2	2	2	2	2	12	2	2	2	2	28	2	2	2	2	5	2	2	7	2	2	2	2	3	2	2	3	2	2	2	2	6	2	5	2	2	5	2	2	2	2	2	2	3	2	2	2	2	2	2	15	8	2	2	2	6	2	2	2	2	2	2	2	2	2	2	2	2	2	2	2	2	2	2	2	2	2	2	2	3	2	2	2	2	2	3	2	2	2	2	2	2	2	2	2	2	5	2	3	3	2	2	2	2	2	2	2	2	2	2	2	2	2	6	2	2	2	2	2	2	2	2	2	2	2	2	2	2	2	2	2	2	2	2	2	2	2	2	2	2	2	2	2	20	11	3	2	3	7	4	23	2	2	2	2	25	2	2	2	2	16	2	2	2	2	2	2	2	3	2	2	2	2	4	2	2	3	2	2	10	11	3	2	6	2	17	3	2	2	4	2	2	2	2	2	3	2	9	2	2	4	2	2	2	2	2	2	2	2	2	2	2	2	2	2	2	2	2	2	2	2	2	2	2	2	2	2	2	2	6	2	2	2	2	2	2	2	5	2	2	2	2	2	2	2	2	2	2	2	2	2	2	2	2	2	2	2	2	2	2	2	2	2	2	2	2	2	8	2	3	2	2	2	2	2	2	2	2	2	2	2	2	2	2	2	2	3	2	2	2	2	2	2	2	2	2	2	2	2	2	2	2	2	13	14	2	3	3	2	71	3	2	2	2	11	2	2	2	2	2	3	2	2	2	6	2	2	2	2	2	4	2	2	3	11	2	2	2	2	2	2	2	2	2	2	2	2	2	2	2	2	3	2	2	2	2	2	2	2	2	2	2	2	2	2	2	2	2	2	2	2	2	2	2	2	2	2	2	5	2	2	2	2	2	2	2	2	2	2	2	25	5	3	6	49	2	2	2	2	2	2	2	2	2	2	2	2	2	4	2	2	4	3	3	2	2	2	2	2	2	2	2	2	2	2	2	2	2	2	2	2	2	2	2	2	2	2	2	2	2	2	2	2	2	25	35	2	9	2	2	5	19	8	5	3	2	3	2	2	2	23	2	3	2	4	2	2	3	2	2	2	2	2	2	2	2	2	2	4	2	2	2	5	5	4	2	2	2	2	2	2	2	2	2	2	2	2	3	2	2	2	2	2	2	2	2	2	2	2	2	2	2	2	2	2	2	2	2	2	2	2	35	11	4	6	30	2	2	2	35	2	2	2	2	2	5	4	2	2	2	2	2	2	2	2	2	2	2	3	5	2	2	2	2	20	2	5	32	2	3	2	2	2	2	2	2	2	2	2	5	10	9	3	3
;

param max_delay:=
	1	DELAYSB
	2	DELAYSB
	3	DELAYSB
	4	DELAYSB
	5	DELAYSB
	6	DELAYSB
	7	DELAYSB
	8	DELAYSB
	9	DELAYSB
	10	DELAYSB
	11	DELAYSB
	12	DELAYSB
	13	DELAYSB
	14	DELAYSB
	15	DELAYSB
	16	DELAYSB
	17	DELAYSB
	18	DELAYSB
	19	DELAYSB
	20	DELAYSB
	21	DELAYSB
	22	DELAYSB
	23	DELAYSB
	24	DELAYSB
	25	DELAYSB
	26	DELAYSB
	27	DELAYSB
	28	DELAYSB
	29	DELAYSB
	30	DELAYSB
	31	DELAYSB
	32	DELAYSB
	33	DELAYSB
	34	DELAYSB
	35	DELAYSB
	36	DELAYSB
	37	DELAYSB
	38	DELAYSB
	39	DELAYSB
	40	DELAYSB
	41	DELAYSB
	42	DELAYSB
	43	DELAYSB
	44	DELAYSB
	45	DELAYSB
	46	DELAYSB
	47	DELAYSB
	48	DELAYSB
	49	DELAYSB
	50	DELAYSB
	51	DELAYSB
	52	DELAYSB
	53	DELAYSB
	54	DELAYSB
	55	DELAYSB
	56	DELAYSB
	57	DELAYSB
	58	DELAYSB
	59	DELAYSB
	60	DELAYSB
	61	DELAYSB
	62	DELAYSB
	63	DELAYSB
	64	DELAYSB
	65	DELAYSB
	66	DELAYSB
	67	DELAYSB
	68	DELAYSB
	69	DELAYSB
	70	DELAYSB
	71	DELAYSB
	72	DELAYSB
	73	DELAYSB
	74	DELAYSB
	75	DELAYSB
	76	DELAYSB
	77	DELAYSB
	78	DELAYSB
	79	DELAYSB
	80	DELAYSB
	81	DELAYSB
	82	DELAYSB
	83	DELAYSB
	84	DELAYSB
	85	DELAYSB
	86	DELAYSB
	87	DELAYSB
	88	DELAYSB
	89	DELAYSB
	90	DELAYSB
	91	DELAYSB
	92	DELAYSB
	93	DELAYSB
	94	DELAYSB
	95	DELAYSB
	96	DELAYSB
	97	DELAYSB
	98	DELAYSB
	99	DELAYSB
	100	DELAYSB
	101	DELAYSB
	102	DELAYSB
	103	DELAYSB
	104	DELAYSB
	105	DELAYSB
	106	DELAYSB
	107	DELAYSB
	108	DELAYSB
	109	DELAYSB
	110	DELAYSB
	111	DELAYSB
	112	DELAYSB
	113	DELAYSB
	114	DELAYSB
	115	DELAYSB
	116	DELAYSB
	117	DELAYSB
	118	DELAYSB
	119	DELAYSB
	120	DELAYSB
	121	DELAYSB
	122	DELAYSB
	123	DELAYSB
	124	DELAYSB
	125	DELAYSB
	126	DELAYSB
	127	DELAYSB
	128	DELAYSB
	129	DELAYSB
	130	DELAYSB
	131	DELAYSB
	132	DELAYSB
	133	DELAYSB
	134	DELAYSB
	135	DELAYSB
	136	DELAYSB
	137	DELAYSB
	138	DELAYSB
	139	DELAYSB
	140	DELAYSB
	141	DELAYSB
	142	DELAYSB
	143	DELAYSB
	144	DELAYSB
	145	DELAYSB
	146	DELAYSB
	147	DELAYSB
	148	DELAYSB
	149	DELAYSB
	150	DELAYSB
	151	DELAYSB
	152	DELAYSB
	153	DELAYSB
	154	DELAYSB
	155	DELAYSB
	156	DELAYSB
	157	DELAYSB
	158	DELAYSB
	159	DELAYSB
	160	DELAYSB
	161	DELAYSB
	162	DELAYSB
	163	DELAYSB
	164	DELAYSB
	165	DELAYSB
	166	DELAYSB
	167	DELAYSB
	168	DELAYSB
	169	DELAYSB
	170	DELAYSB
	171	DELAYSB
	172	DELAYSB
	173	DELAYSB
	174	DELAYSB
	175	DELAYSB
	176	DELAYSB
	177	DELAYSB
	178	DELAYSB
	179	DELAYSB
	180	DELAYSB
	181	DELAYSB
	182	DELAYSB
	183	DELAYSB
	184	DELAYSB
	185	DELAYSB
	186	DELAYSB
	187	DELAYSB
	188	DELAYSB
	189	DELAYSB
	190	DELAYSB
	191	DELAYSB
	192	DELAYSB
	193	DELAYSB
	194	DELAYSB
	195	DELAYSB
	196	DELAYSB
	197	DELAYSB
	198	DELAYSB
	199	DELAYSB
	200	DELAYSB
	201	DELAYSB
	202	DELAYSB
	203	DELAYSB
	204	DELAYSB
	205	DELAYSB
	206	DELAYSB
	207	DELAYSB
	208	DELAYSB
	209	DELAYSB
	210	DELAYSB
	211	DELAYSB
	212	DELAYSB
	213	DELAYSB
	214	DELAYSB
	215	DELAYSB
	216	DELAYSB
	217	DELAYSB
	218	DELAYSB
	219	DELAYSB
	220	DELAYSB
	221	DELAYSB
	222	DELAYSB
	223	DELAYSB
	224	DELAYSB
	225	DELAYSB
	226	DELAYSB
	227	DELAYSB
	228	DELAYSB
	229	DELAYSB
	230	DELAYSB
	231	DELAYSB
	232	DELAYSB
	233	DELAYSB
	234	DELAYSB
	235	DELAYSB
	236	DELAYSB
	237	DELAYSB
	238	DELAYSB
	239	DELAYSB
	240	DELAYSB
	241	DELAYSB
	242	DELAYSB
	243	DELAYSB
	244	DELAYSB
	245	DELAYSB
	246	DELAYSB
	247	DELAYSB
	248	DELAYSB
	249	DELAYSB
	250	DELAYSB
	251	DELAYSB
	252	DELAYSB
	253	DELAYSB
	254	DELAYSB
	255	DELAYSB
	256	DELAYSB
	257	DELAYSB
	258	DELAYSB
	259	DELAYSB
	260	DELAYSB
	261	DELAYSB
	262	DELAYSB
	263	DELAYSB
	264	DELAYSB
	265	DELAYSB
	266	DELAYSB
	267	DELAYSB
	268	DELAYSB
	269	DELAYSB
	270	DELAYSB
	271	DELAYSB
	272	DELAYSB
	273	DELAYSB
	274	DELAYSB
	275	DELAYSB
	276	DELAYSB
	277	DELAYSB
	278	DELAYSB
	279	DELAYSB
	280	DELAYSB
	281	DELAYSB
	282	DELAYSB
	283	DELAYSB
	284	DELAYSB
	285	DELAYSB
	286	DELAYSB
	287	DELAYSB
	288	DELAYSB
	289	DELAYSB
	290	DELAYSB
	291	DELAYSB
	292	DELAYSB
	293	DELAYSB
	294	DELAYSB
	295	DELAYSB
	296	DELAYSB
	297	DELAYSB
	298	DELAYSB
	299	DELAYSB
	300	DELAYSB
	301	DELAYSB
	302	DELAYSB
	303	DELAYSB
	304	DELAYSB
	305	DELAYSB
	306	DELAYSB
	307	DELAYSB
	308	DELAYSB
	309	DELAYSB
	310	DELAYSB
	311	DELAYSB
	312	DELAYSB
	313	DELAYSB
	314	DELAYSB
	315	DELAYSB
	316	DELAYSB
	317	DELAYSB
	318	DELAYSB
	319	DELAYSB
	320	DELAYSB
	321	DELAYSB
	322	DELAYSB
	323	DELAYSB
	324	DELAYSB
	325	DELAYSB
	326	DELAYSB
	327	DELAYSB
	328	DELAYSB
	329	DELAYSB
	330	DELAYSB
	331	DELAYSB
	332	DELAYSB
	333	DELAYSB
	334	DELAYSB
	335	DELAYSB
	336	DELAYSB
	337	DELAYSB
	338	DELAYSB
	339	DELAYSB
	340	DELAYSB
	341	DELAYSB
	342	DELAYSB
	343	DELAYSB
	344	DELAYSB
	345	DELAYSB
	346	DELAYSB
	347	DELAYSB
	348	DELAYSB
	349	DELAYSB
	350	DELAYSB
	351	DELAYSB
	352	DELAYSB
	353	DELAYSB
	354	DELAYSB
	355	DELAYSB
	356	DELAYSB
	357	DELAYSB
	358	DELAYSB
	359	DELAYSB
	360	DELAYSB
	361	DELAYSB
	362	DELAYSB
	363	DELAYSB
	364	DELAYSB
	365	DELAYSB
	366	DELAYSB
	367	DELAYSB
	368	DELAYSB
	369	DELAYSB
	370	DELAYSB
	371	DELAYSB
	372	DELAYSB
	373	DELAYSB
	374	DELAYSB
	375	DELAYSB
	376	DELAYSB
	377	DELAYSB
	378	DELAYSB
	379	DELAYSB
	380	DELAYSB
	381	DELAYSB
	382	DELAYSB
	383	DELAYSB
	384	DELAYSB
	385	DELAYSB
	386	DELAYSB
	387	DELAYSB
	388	DELAYSB
	389	DELAYSB
	390	DELAYSB
	391	DELAYSB
	392	DELAYSB
	393	DELAYSB
	394	DELAYSB
	395	DELAYSB
	396	DELAYSB
	397	DELAYSB
	398	DELAYSB
	399	DELAYSB
	400	DELAYSB
	401	DELAYSB
	402	DELAYSB
	403	DELAYSB
	404	DELAYSB
	405	DELAYSB
	406	DELAYSB
	407	DELAYSB
	408	DELAYSB
	409	DELAYSB
	410	DELAYSB
	411	DELAYSB
	412	DELAYSB
	413	DELAYSB
	414	DELAYSB
	415	DELAYSB
	416	DELAYSB
	417	DELAYSB
	418	DELAYSB
	419	DELAYSB
	420	DELAYSB
	421	DELAYSB
	422	DELAYSB
	423	DELAYSB
	424	DELAYSB
	425	DELAYSB
	426	DELAYSB
	427	DELAYSB
	428	DELAYSB
	429	DELAYSB
	430	DELAYSB
	431	DELAYSB
	432	DELAYSB
	433	DELAYSB
	434	DELAYSB
	435	DELAYSB
	436	DELAYSB
	437	DELAYSB
	438	DELAYSB
	439	DELAYSB
	440	DELAYSB
	441	DELAYSB
	442	DELAYSB
	443	DELAYSB
	444	DELAYSB
	445	DELAYSB
	446	DELAYSB
	447	DELAYSB
	448	DELAYSB
	449	DELAYSB
	450	DELAYSB
	451	DELAYSB
	452	DELAYSB
	453	DELAYSB
	454	DELAYSB
	455	DELAYSB
	456	DELAYSB
	457	DELAYSB
	458	DELAYSB
	459	DELAYSB
	460	DELAYSB
	461	DELAYSB
	462	DELAYSB
	463	DELAYSB
	464	DELAYSB
	465	DELAYSB
	466	DELAYSB
	467	DELAYSB
	468	DELAYSB
	469	DELAYSB
	470	DELAYSB
	471	DELAYSB
	472	DELAYSB
	473	DELAYSB
	474	DELAYSB
	475	DELAYSB
	476	DELAYSB
	477	DELAYSB
	478	DELAYSB
	479	DELAYSB
	480	DELAYSB
	481	DELAYSB
	482	DELAYSB
	483	DELAYSB
	484	DELAYSB
	485	DELAYSB
	486	DELAYSB
	487	DELAYSB
	488	DELAYSB
	489	DELAYSB
	490	DELAYSB
	491	DELAYSB
	492	DELAYSB
	493	DELAYSB
	494	DELAYSB
	495	DELAYSB
	496	DELAYSB
	497	DELAYSB
	498	DELAYSB
	499	DELAYSB
	500	DELAYSB
	501	DELAYSB
	502	DELAYSB
	503	DELAYSB
	504	DELAYSB
	505	DELAYSB
	506	DELAYSB
	507	DELAYSB
	508	DELAYSB
	509	DELAYSB
	510	DELAYSB
	511	DELAYSB
	512	DELAYSB
	513	DELAYSB
	514	DELAYSB
	515	DELAYSB
	516	DELAYSB
	517	DELAYSB
	518	DELAYSB
	519	DELAYSB
	520	DELAYSB
	521	DELAYSB
	522	DELAYSB
	523	DELAYSB
	524	DELAYSB
	525	DELAYSB
	526	DELAYSB
	527	DELAYSB
	528	DELAYSB
	529	DELAYSB
	530	DELAYSB
	531	DELAYSB
	532	DELAYSB
	533	DELAYSB
	534	DELAYSB
	535	DELAYSB
	536	DELAYSB
	537	DELAYSB
	538	DELAYSB
	539	DELAYSB
	540	DELAYSB
	541	DELAYSB
	542	DELAYSB
	543	DELAYSB
	544	DELAYSB
	545	DELAYSB
	546	DELAYSB
	547	DELAYSB
	548	DELAYSB
	549	DELAYSB
	550	DELAYSB
	551	DELAYSB
	552	DELAYSB
	553	DELAYSB
	554	DELAYSB
	555	DELAYSB
	556	DELAYSB
	557	DELAYSB
	558	DELAYSB
	559	DELAYSB
	560	DELAYSB
	561	DELAYSB
	562	DELAYSB
	563	DELAYSB
	564	DELAYSB
	565	DELAYSB
	566	DELAYSB
	567	DELAYSB
	568	DELAYSB
	569	DELAYSB
	570	DELAYSB
	571	DELAYSB
	572	DELAYSB
	573	DELAYSB
	574	DELAYSB
	575	DELAYSB
	576	DELAYSB
	577	DELAYSB
	578	DELAYSB
	579	DELAYSB
	580	DELAYSB
	581	DELAYSB
	582	DELAYSB
	583	DELAYSB
	584	DELAYSB
	585	DELAYSB
	586	DELAYSB
	587	DELAYSB
	588	DELAYSB
	589	DELAYSB
	590	DELAYSB
	591	DELAYSB
	592	DELAYSB
	593	DELAYSB
	594	DELAYSB
	595	DELAYSB
	596	DELAYSB
	597	DELAYSB
	598	DELAYSB
	599	DELAYSB
	600	DELAYSB
	601	DELAYSB
	602	DELAYSB
	603	DELAYSB
	604	DELAYSB
	605	DELAYSB
	606	DELAYSB
	607	DELAYSB
	608	DELAYSB
	609	DELAYSB
	610	DELAYSB
	611	DELAYSB
	612	DELAYSB
	613	DELAYSB
	614	DELAYSB
	615	DELAYSB
	616	DELAYSB
	617	DELAYSB
	618	DELAYSB
	619	DELAYSB
	620	DELAYSB
	621	DELAYSB
	622	DELAYSB
	623	DELAYSB
	624	DELAYSB
	625	DELAYSB
	626	DELAYSB
	627	DELAYSB
	628	DELAYSB
	629	DELAYSB
	630	DELAYSB
	631	DELAYSB
	632	DELAYSB
	633	DELAYSB
	634	DELAYSB
	635	DELAYSB
	636	DELAYSB
	637	DELAYSB
	638	DELAYSB
	639	DELAYSB
	640	DELAYSB
	641	DELAYSB
	642	DELAYSB
	643	DELAYSB
	644	DELAYSB
	645	DELAYSB
	646	DELAYSB
	647	DELAYSB
	648	DELAYSB
	649	DELAYSB
	650	DELAYSB
	651	DELAYSB
	652	DELAYSB
	653	DELAYSB
	654	DELAYSB
	655	DELAYSB
	656	DELAYSB
	657	DELAYSB
	658	DELAYSB
	659	DELAYSB
	660	DELAYSB
	661	DELAYSB
	662	DELAYSB
;

param travel_cost (tr):	1	2	3	4:=
		1	329	329	329	329
		2	329	329	329	329
		3	329	329	329	329
		4	329	329	329	329
		5	329	329	329	329
		6	329	329	329	329
		7	329	329	329	329
		8	372	372	372	372
		9	372	372	372	372
		10	372	372	372	372
		11	372	372	372	372
		12	329	329	329	329
		13	329	329	329	329
		14	329	329	329	329
		15	372	372	372	372
		16	372	372	372	372
		17	372	372	372	372
		18	372	372	372	372
		19	329	329	329	329
		20	415	415	415	415
		21	415	415	415	415
		22	372	372	372	372
		23	415	415	415	415
		24	415	415	415	415
		25	372	372	372	372
		26	415	415	415	415
		27	372	372	372	372
		28	372	372	372	372
		29	372	372	372	372
		30	415	415	415	415
		31	415	415	415	415
		32	329	329	329	329
		33	372	372	372	372
		34	372	372	372	372
		35	372	372	372	372
		36	372	372	372	372
		37	415	415	415	415
		38	372	372	372	372
		39	372	372	372	372
		40	372	372	372	372
		41	329	329	329	329
		42	372	372	372	372
		43	372	372	372	372
		44	372	372	372	372
		45	329	329	329	329
		46	329	329	329	329
		47	329	329	329	329
		48	329	329	329	329
		49	372	372	372	372
		50	372	372	372	372
		51	372	372	372	372
		52	372	372	372	372
		53	372	372	372	372
		54	372	372	372	372
		55	372	372	372	372
		56	372	372	372	372
		57	372	372	372	372
		58	372	372	372	372
		59	329	329	329	329
		60	329	329	329	329
		61	372	372	372	372
		62	329	329	329	329
		63	372	372	372	372
		64	329	329	329	329
		65	329	329	329	329
		66	329	329	329	329
		67	329	329	329	329
		68	329	329	329	329
		69	372	372	372	372
		70	372	372	372	372
		71	329	329	329	329
		72	329	329	329	329
		73	372	372	372	372
		74	372	372	372	372
		75	372	372	372	372
		76	329	329	329	329
		77	372	372	372	372
		78	372	372	372	372
		79	329	329	329	329
		80	372	372	372	372
		81	372	372	372	372
		82	372	372	372	372
		83	372	372	372	372
		84	415	415	415	415
		85	372	372	372	372
		86	329	329	329	329
		87	372	372	372	372
		88	372	372	372	372
;

param capacity (tr):	1	2	3	4:=
		1	10	10	10	10
		2	10	10	10	10
;

param acc_delay:=
	DELA	DEL
	DELAY	DELA
	DELAYS	DELAY
	DELAYSB	DELAYS
	DEL	DEL
;

param log_func:=
	NONE	WER
	WER	PER
	PER	NONE
;